1, 15, 52, 53, 22, 21, 27, 28, 29, 23, 32, 35, 31, 30, 1
1, 36, 24, 51, 46, 45, 47, 37, 44, 25, 26, 17, 1
1, 14, 18, 16, 2, 3, 7, 4, 6, 5, 9, 12, 11, 10, 13, 8, 19, 1
1, 20, 38, 40, 41, 49, 48, 50, 43, 42, 39, 34, 33, 1
